(set-logic ALL)
(set-option :dt-nested-rec true)
(declare-datatypes ((T 0)) (((nT) (cons (id Int) (arr (Array Int T)) ) )) )
(declare-const t1 T)
(declare-const t2 T)
(assert (not (= t1 nT)))
(assert (not (= t2 nT)))
(declare-const a1 (Array Int T))
(declare-const a2 (Array Int T))